c A0 = 1
c A1 = 2
c A10 = 3
c A11 = 4
c A12 = 5
c A13 = 6
c A14 = 7
c A15 = 8
c A16 = 9
c A17 = 10
c A18 = 11
c A19 = 12
c A2 = 13
c A3 = 14
c A4 = 15
c A5 = 16
c A6 = 17
c A7 = 18
c A8 = 19
c A9 = 20
c F1 = 21
c F2 = -22
c F3 = -24
c F4 = -7
c F5 = 25
c F6 = 31
c F7 = 34
c F8 = 37
c F9 = -41
c F10 = 43
c F11 = 1
c F12 = 49
c F13 = 15
c F14 = 13
c F15 = 16
c F16 = 19
c F17 = 52
c F18 = -54
c F19 = 56
c F20 = 60
c F21 = 62
c F22 = 67
c F23 = 70
c F24 = 9
c F25 = 12
c F26 = 71
c F27 = -73
c F28 = 75
c F29 = 81
c F30 = -16
p cnf 82 216 31
21 0
-22 0
-24 0
-7 0
25 0
31 0
34 0
37 0
-41 0
43 0
1 0
49 0
15 0
13 0
16 0
19 0
52 0
-54 0
56 0
60 0
62 0
67 0
70 0
9 0
12 0
71 0
-73 0
75 0
81 0
-16 0
21 -14 16 0
-21 14 0
-21 -16 0
22 -23 -18 0
-22 23 0
-22 18 0
23 -9 -12 0
-23 9 0
-23 12 0
-24 18 4 0
24 -18 0
24 -4 0
-25 26 27 0
25 -26 0
25 -27 0
26 -28 -16 0
-26 28 0
-26 16 0
28 -5 -10 0
-28 5 0
-28 10 0
27 -29 -30 0
-27 29 0
-27 30 0
29 -4 -11 0
-29 4 0
-29 11 0
30 -16 -19 0
-30 16 0
-30 19 0
-31 32 13 0
31 -32 0
31 -13 0
32 -33 -4 0
-32 33 0
-32 4 0
33 -19 -20 0
-33 19 0
-33 20 0
-34 -35 -14 0
34 35 0
34 14 0
-35 36 4 0
35 -36 0
35 -4 0
-36 16 19 0
36 -16 0
36 -19 0
37 -38 -39 0
-37 38 0
-37 39 0
-38 40 11 0
38 -40 0
38 -11 0
-40 12 18 0
40 -12 0
40 -18 0
39 -5 -20 0
-39 5 0
-39 20 0
41 -4 -42 0
-41 4 0
-41 42 0
42 -12 -3 0
-42 12 0
-42 3 0
43 -44 -45 0
-43 44 0
-43 45 0
44 2 -46 0
-44 -2 0
-44 46 0
46 -5 -47 0
-46 5 0
-46 47 0
47 -13 -20 0
-47 13 0
-47 20 0
45 -12 48 0
-45 12 0
-45 -48 0
-48 2 15 0
48 -2 0
48 -15 0
49 -50 3 0
-49 50 0
-49 -3 0
-50 16 51 0
50 -16 0
50 -51 0
-51 14 7 0
51 -14 0
51 -7 0
-52 11 53 0
52 -11 0
52 -53 0
53 -8 -2 0
-53 8 0
-53 2 0
-54 -15 55 0
54 15 0
54 -55 0
55 -10 -3 0
-55 10 0
-55 3 0
-56 10 57 0
56 -10 0
56 -57 0
-57 6 58 0
57 -6 0
57 -58 0
-58 59 5 0
58 -59 0
58 -5 0
-59 1 14 0
59 -1 0
59 -14 0
60 13 -61 0
-60 -13 0
-60 61 0
61 -19 -15 0
-61 19 0
-61 15 0
-62 63 64 0
62 -63 0
62 -64 0
-63 65 13 0
63 -65 0
63 -13 0
65 -7 -12 0
-65 7 0
-65 12 0
-64 66 19 0
64 -66 0
64 -19 0
66 -4 -11 0
-66 4 0
-66 11 0
67 -68 69 0
-67 68 0
-67 -69 0
68 16 -16 0
-68 -16 0
-68 16 0
-69 3 11 0
69 -3 0
69 -11 0
-70 16 5 0
70 -16 0
70 -5 0
-71 -13 72 0
71 13 0
71 -72 0
72 -3 -7 0
-72 3 0
-72 7 0
73 -74 -7 0
-73 74 0
-73 7 0
-74 19 11 0
74 -19 0
74 -11 0
-75 76 77 0
75 -76 0
75 -77 0
76 -78 -5 0
-76 78 0
-76 5 0
-78 6 5 0
78 -6 0
78 -5 0
77 -15 -79 0
-77 15 0
-77 79 0
-79 2 80 0
79 -2 0
79 -80 0
80 -19 -1 0
-80 19 0
-80 1 0
-81 -14 -82 0
81 14 0
81 82 0
-82 -17 4 0
82 17 0
82 -4 0
